7
2147483647 63 92 38 89 38 62 
63 2147483647 37 18 96 91 23 
92 37 2147483647 100 23 57 98 
38 18 100 2147483647 79 47 63 
89 96 23 79 2147483647 2 11 
38 91 57 47 2 2147483647 36 
62 23 98 63 11 36 2147483647 
